
Gurobi 9.5.0 (linux64) logging started Sat Nov  4 17:00:52 2023

Set parameter LogFile to value "/lustre1/scratch/348/vsc34888/JointResearch/05.Models/06.Benchmarking/D.Representative_days_based_on_RES_and_Demand/RTS24_ByStages_nc100/openStarNet_RTS24_ByStages_nc100.log"
Set parameter Method to value 2
Set parameter MIPFocus to value 1
Set parameter Presolve to value 2
Set parameter RINS to value 100
Set parameter MIPGap to value 0.01
Set parameter Threads to value 36
Set parameter TimeLimit to value 604800
Set parameter IterationLimit to value 760000000
Gurobi Optimizer version 9.5.0 build v9.5.0rc5 (linux64)
Thread count: 36 physical cores, 36 logical processors, using up to 36 threads
Optimize a model with 46621 rows, 26255 columns and 122762 nonzeros
Model fingerprint: 0xa5412e42
Variable types: 26216 continuous, 39 integer (39 binary)
Coefficient statistics:
  Matrix range     [1e-03, 2e+03]
  Objective range  [1e+00, 1e+00]
  Bounds range     [4e-04, 3e+00]
  RHS range        [4e-04, 3e+00]
Presolve removed 23821 rows and 11586 columns
Presolve time: 0.24s
Presolved: 22800 rows, 14669 columns, 79330 nonzeros
Variable types: 14630 continuous, 39 integer (39 binary)
Found heuristic solution: objective 59.7516261
Root relaxation presolved: 22800 rows, 14669 columns, 79330 nonzeros

Root barrier log...

Ordering time: 0.01s

Barrier statistics:
 Dense cols : 39
 AA' NZ     : 1.687e+05
 Factor NZ  : 5.653e+05 (roughly 20 MB of memory)
 Factor Ops : 1.780e+07 (less than 1 second per iteration)
 Threads    : 36

                  Objective                Residual
Iter       Primal          Dual         Primal    Dual     Compl     Time
   0   6.21493926e+05 -9.59778624e+07  4.49e+00 2.42e+02  5.99e+03     1s
   1   7.07438132e+04 -2.58726559e+07  4.30e-01 8.89e-09  7.75e+02     1s
   2   1.92014673e+04 -3.85136494e+06  1.92e-02 1.60e-09  8.65e+01     1s
   3   1.24644035e+04 -7.61782379e+05  4.17e-04 3.22e-10  1.67e+01     1s
   4   5.48123691e+03 -6.61563342e+04  2.14e-05 1.88e-11  1.55e+00     1s
   5   1.46121799e+03 -2.00128173e+04  4.79e-06 5.11e-12  4.63e-01     1s
   6   3.75192551e+02 -6.17898188e+03  4.35e-07 1.53e-12  1.41e-01     1s
   7   2.12600932e+02 -2.06283686e+03  6.09e-08 9.09e-13  4.91e-02     1s
   8   1.76490280e+02 -7.34912720e+02  3.17e-08 9.09e-13  1.97e-02     1s
   9   1.42272838e+02 -2.45659623e+02  1.70e-08 1.82e-12  8.37e-03     1s
  10   8.36471243e+01 -5.20027602e+01  2.58e-09 9.09e-13  2.93e-03     1s
  11   5.51493558e+01  1.56692255e+01  4.29e-10 9.09e-13  8.52e-04     1s
  12   5.10400452e+01  3.59617804e+01  2.34e-10 9.09e-13  3.25e-04     1s
  13   4.88859726e+01  3.85635092e+01  1.38e-10 9.09e-13  2.23e-04     1s
  14   4.78872714e+01  4.01858616e+01  9.41e-11 9.09e-13  1.66e-04     1s
  15   4.71309187e+01  4.26859179e+01  6.14e-11 9.09e-13  9.59e-05     1s
  16   4.63659236e+01  4.43875778e+01  2.81e-11 9.09e-13  4.27e-05     1s
  17   4.60308139e+01  4.48516653e+01  1.53e-11 1.82e-12  2.54e-05     1s
  18   4.59322868e+01  4.54187404e+01  1.22e-11 9.09e-13  1.11e-05     1s
  19   4.57963858e+01  4.55064327e+01  6.81e-12 9.09e-13  6.26e-06     1s
  20   4.56851769e+01  4.55871602e+01  2.35e-11 9.09e-13  2.12e-06     1s
  21   4.56339195e+01  4.56138389e+01  2.10e-11 9.09e-13  4.33e-07     1s
  22   4.56178196e+01  4.56176104e+01  1.32e-11 9.09e-13  4.51e-09     1s
  23   4.56177635e+01  4.56177635e+01  1.76e-11 1.82e-12  2.18e-14     1s

Barrier solved model in 23 iterations and 0.89 seconds (0.83 work units)
Optimal objective 4.56177635e+01


Root relaxation: objective 4.561776e+01, 1650 iterations, 0.58 seconds (0.37 work units)

    Nodes    |    Current Node    |     Objective Bounds      |     Work
 Expl Unexpl |  Obj  Depth IntInf | Incumbent    BestBd   Gap | It/Node Time

     0     0   45.61776    0    7   59.75163   45.61776  23.7%     -    1s
H    0     0                      55.4901021   45.61776  17.8%     -    1s
     0     0   46.49938    0    8   55.49010   46.49938  16.2%     -    1s
     0     0   47.44658    0    8   55.49010   47.44658  14.5%     -    2s
     0     0   47.55473    0    7   55.49010   47.55473  14.3%     -    2s
H    0     0                      55.2806282   47.55473  14.0%     -    2s
     0     0   48.74365    0    8   55.28063   48.74365  11.8%     -    3s
     0     0   48.74365    0    8   55.28063   48.74365  11.8%     -    3s
H    0     0                      54.5521735   48.74365  10.6%     -    3s
     0     0   49.09717    0    7   54.55217   49.09717  10.0%     -    3s
     0     0   49.09717    0    7   54.55217   49.09717  10.0%     -    4s
     0     0   49.09717    0    7   54.55217   49.09717  10.0%     -    4s
     0     0   49.09717    0    7   54.55217   49.09717  10.0%     -    4s
     0     0   49.13578    0    7   54.55217   49.13578  9.93%     -    4s
     0     0   49.13578    0    7   54.55217   49.13578  9.93%     -    4s
     0     0   49.13578    0    7   54.55217   49.13578  9.93%     -    4s
     0     0   49.18510    0    7   54.55217   49.18510  9.84%     -    4s
     0     0   49.26122    0    7   54.55217   49.26122  9.70%     -    4s
     0     0   49.26122    0    7   54.55217   49.26122  9.70%     -    5s
     0     0   49.26122    0    7   54.55217   49.26122  9.70%     -    5s
     0     0   49.34925    0    7   54.55217   49.34925  9.54%     -    5s
H    0     0                      53.6540514   49.34925  8.02%     -    9s
     0     2   49.34925    0    7   53.65405   49.34925  8.02%     -    9s
     3     8   51.33061    2    7   53.65405   49.34925  8.02%   854   10s
   120    23     cutoff    9        53.65405   52.52297  2.11%   302   17s
H  126    23                      53.4789620   52.57379  1.69%   298   17s

Cutting planes:
  Gomory: 5
  Implied bound: 54
  MIR: 631
  Relax-and-lift: 6

Explored 164 nodes (46361 simplex iterations) in 19.04 seconds (20.05 work units)
Thread count was 36 (of 36 available processors)

Solution count 6: 53.479 53.6541 54.5522 ... 59.7516

Optimal solution found (tolerance 1.00e-02)
Best objective 5.347896202146e+01, best bound 5.314398793633e+01, gap 0.6264%

Gurobi 9.5.0 (linux64) logging started Sat Nov  4 17:01:18 2023

Set parameter LogFile to value "/lustre1/scratch/348/vsc34888/JointResearch/05.Models/06.Benchmarking/D.Representative_days_based_on_RES_and_Demand/RTS24_ByStages_nc100/openStarNet_RTS24_ByStages_nc100.log"
Set parameter Method to value 2
Set parameter MIPFocus to value 1
Set parameter Presolve to value 2
Set parameter RINS to value 100
Set parameter MIPGap to value 0.01
Set parameter Threads to value 36
Set parameter TimeLimit to value 604800
Set parameter IterationLimit to value 760000000
No parameters matching 'relax_integrality' found
Gurobi Optimizer version 9.5.0 build v9.5.0rc5 (linux64)
Thread count: 36 physical cores, 36 logical processors, using up to 36 threads
Optimize a model with 46621 rows, 26216 columns and 107123 nonzeros
Model fingerprint: 0x9290f9d7
Coefficient statistics:
  Matrix range     [1e-03, 2e+03]
  Objective range  [1e+00, 1e+00]
  Bounds range     [4e-04, 3e+00]
  RHS range        [4e-04, 1e+01]
Presolve removed 37735 rows and 13014 columns
Presolve time: 0.05s
Presolved: 8886 rows, 13402 columns, 32074 nonzeros

Ordering time: 0.00s

Barrier statistics:
 AA' NZ     : 2.114e+04
 Factor NZ  : 9.225e+04 (roughly 8 MB of memory)
 Factor Ops : 1.351e+06 (less than 1 second per iteration)
 Threads    : 36

                  Objective                Residual
Iter       Primal          Dual         Primal    Dual     Compl     Time
   0   8.92534796e+05 -1.29598513e+08  1.46e+01 1.23e+02  1.19e+04     0s
   1   1.26661507e+05 -1.74059215e+07  1.68e+00 2.96e-12  1.20e+03     0s
   2   3.30353721e+04 -3.07285426e+06  1.23e-01 2.50e-12  1.51e+02     0s
   3   1.87006312e+04 -4.48531658e+05  5.71e-03 1.84e-12  2.06e+01     0s
   4   7.79310905e+03 -6.90022649e+04  4.49e-04 7.17e-12  3.37e+00     0s
   5   2.67995775e+03 -1.51705571e+04  1.19e-04 9.09e-13  7.83e-01     0s
   6   6.56923247e+02 -3.61528708e+03  2.03e-05 4.55e-13  1.87e-01     0s
   7   2.36463514e+02 -1.10694722e+03  3.59e-06 2.27e-13  5.89e-02     0s
   8   1.40143315e+02 -3.59520485e+02  1.05e-06 4.55e-13  2.19e-02     0s
   9   9.22397140e+01 -1.29616467e+02  3.44e-07 4.55e-13  9.73e-03     0s
  10   6.49133443e+01  1.68249013e+01  5.71e-08 4.55e-13  2.11e-03     0s
  11   5.67540402e+01  3.97482790e+01  1.20e-08 4.55e-13  7.45e-04     0s
  12   5.48616695e+01  4.85507364e+01  4.62e-09 4.55e-13  2.77e-04     0s
  13   5.40267538e+01  5.17126338e+01  1.73e-09 4.55e-13  1.01e-04     0s
  14   5.36935999e+01  5.28554167e+01  6.45e-10 4.55e-13  3.67e-05     0s
  15   5.35822379e+01  5.33533577e+01  2.98e-10 4.55e-13  1.00e-05     0s
  16   5.34866015e+01  5.34729528e+01  5.18e-10 6.82e-13  5.98e-07     0s
  17   5.34798986e+01  5.34781142e+01  7.87e-11 9.09e-13  7.82e-08     0s
  18   5.34789649e+01  5.34789535e+01  3.98e-09 2.27e-13  5.01e-10     0s
  19   5.34789620e+01  5.34789620e+01  1.82e-09 4.55e-13  5.01e-13     0s
  20   5.34789620e+01  5.34789620e+01  8.08e-12 9.09e-13  5.01e-16     0s

Barrier solved model in 20 iterations and 0.18 seconds (0.13 work units)
Optimal objective 5.34789620e+01

Crossover log...

    1190 DPushes remaining with DInf 0.0000000e+00                 0s
       0 DPushes remaining with DInf 0.0000000e+00                 0s

     444 PPushes remaining with PInf 0.0000000e+00                 0s
       0 PPushes remaining with PInf 0.0000000e+00                 0s

  Push phase complete: Pinf 0.0000000e+00, Dinf 2.4301586e-13      0s

Iteration    Objective       Primal Inf.    Dual Inf.      Time
     494    5.3478962e+01   0.000000e+00   0.000000e+00      0s

Use crossover to convert LP symmetric solution to basic solution...
Crossover log...

       0 DPushes remaining with DInf 0.0000000e+00                 0s

     294 PPushes remaining with PInf 0.0000000e+00                 0s
       0 PPushes remaining with PInf 0.0000000e+00                 0s

  Push phase complete: Pinf 0.0000000e+00, Dinf 2.7859026e-13      0s

Iteration    Objective       Primal Inf.    Dual Inf.      Time
     838    5.3478962e+01   0.000000e+00   0.000000e+00      0s

Solved in 838 iterations and 0.27 seconds (0.18 work units)
Optimal objective  5.347896202e+01
